c Output_time 26.03.2020 18:13:12_+0100 1585242792029786078
c ** Program information **
c program_name                          "QBRG_debug"
c version                               "0.3.20"
c date                                  "25.3.2020"
c gid_id                                "673970833836058123f633335630c185360d632e"
c author                                "Oliver Kullmann"
c url                                   "https://github.com/OKullmann/oklibrary/blob/master/Satisfiability/Transformers/Generators/Random/QBRG.cpp"
c ** Machine information **
c machine_name                          "chyna-Lenovo-G50-70"
c bogomips                              3791.08
c ** Compilation information **
c compiler_version                      "g++ 7.5.0"
c compilation_date                      "Mar_26_2020 11:16:30"
c compilation_options                   "--std=c++17 -pedantic -fmax-errors=5 -Wall -Wextra -g -D_GLIBCXX_DEBUG"
c NDEBUG                                0
c OPTIMIZE                              0
c ** Parameters **
c command-line                          "./QBRG_debug" "e40 a40 40" "237*1,1|2-2,1|3-3,1" "" "1,t" ""
c output                                "QuBlRaGe_120_237_1585242792017601713.qdimacs"
c options                               "filtered,renamed"
c num_quantifier_blocks                 3
c  quantifier_blocks                    1:e1-40 2:a41-80 3:e81-120
c num_clause-blocks                     1
c  clause-blocks                        237 * {1-40,1,1/2} | {41-80,1,1/2} | {81-120,1,1/2}
c num_e-seeds                           30+2=32
c  e-seeds                              1 0 1 0 4 120 2 40 1 40 0 40 1 237 3 1 1 1 1 2 2 2 1 1 2 3 3 1 1 2 1 1585242792017601198
p cnf 119 237
e 1 2 3 4 5 6 7 8 9 10 11 12 13 14 15 16 17 18 19 20 21 22 23 24 25 26 27 28 29 30 31 32 33 34 35 36 37 38 39 0
a 40 41 42 43 44 45 46 47 48 49 50 51 52 53 54 55 56 57 58 59 60 61 62 63 64 65 66 67 68 69 70 71 72 73 74 75 76 77 78 79 0
e 80 81 82 83 84 85 86 87 88 89 90 91 92 93 94 95 96 97 98 99 100 101 102 103 104 105 106 107 108 109 110 111 112 113 114 115 116 117 118 119 0
-15 -64 -80 0
7 53 80 0
-15 -65 80 0
-11 66 80 0
28 70 80 0
29 -71 80 0
-22 72 80 0
32 43 -81 0
16 58 -81 0
-33 58 -81 0
-39 66 81 0
26 -72 81 0
5 -79 81 0
35 43 -82 0
-20 44 -82 0
39 -50 -82 0
37 -59 -82 0
-36 63 -82 0
3 -67 -82 0
-30 -67 -82 0
-5 44 82 0
39 45 82 0
-31 47 82 0
35 60 82 0
-1 69 82 0
-22 -71 82 0
36 -54 -83 0
2 54 -83 0
6 58 -83 0
-26 62 -83 0
-23 77 -83 0
5 -64 -84 0
-5 66 -84 0
-4 70 -84 0
16 -40 84 0
36 49 84 0
28 -54 84 0
-38 -61 84 0
-11 61 84 0
-36 43 -85 0
2 -69 -85 0
-31 49 85 0
-7 -41 86 0
-26 46 86 0
-30 -49 86 0
-10 -69 86 0
-22 48 -87 0
-30 -51 -87 0
-24 56 -87 0
-10 -58 -87 0
14 69 -87 0
-2 -40 87 0
-29 -50 87 0
7 -53 87 0
-23 53 87 0
22 76 87 0
-22 -59 -88 0
34 64 -88 0
-35 53 88 0
36 68 88 0
-11 77 88 0
27 48 -89 0
17 58 -89 0
22 58 -89 0
-16 -59 -89 0
18 71 -89 0
-9 59 89 0
19 -61 89 0
15 53 -90 0
38 74 -90 0
-10 -77 -90 0
-4 43 90 0
-21 52 90 0
30 62 90 0
-23 -60 -91 0
-31 45 91 0
31 62 -92 0
-23 -47 92 0
39 53 -93 0
39 57 93 0
-21 69 93 0
-39 -78 93 0
33 -52 -94 0
29 -40 94 0
22 -44 94 0
-34 -44 94 0
24 -50 94 0
29 53 94 0
6 54 94 0
26 68 94 0
6 78 94 0
25 41 -95 0
35 50 -95 0
14 -58 -95 0
-11 72 -95 0
5 -45 95 0
19 65 95 0
-30 -41 -96 0
39 71 -96 0
-35 -55 96 0
-6 66 96 0
-21 -76 96 0
-12 -43 -97 0
-10 -42 97 0
27 -43 97 0
32 44 97 0
2 -49 97 0
-6 58 97 0
13 -79 97 0
-1 79 97 0
13 -40 -98 0
-26 52 -98 0
13 -47 98 0
-4 54 98 0
-7 61 98 0
-13 -65 98 0
32 -46 99 0
9 -53 99 0
-3 -62 99 0
-8 -76 99 0
-12 77 99 0
12 77 99 0
20 48 -100 0
-15 48 100 0
-2 -45 -101 0
12 54 -101 0
-1 -58 -101 0
-4 -66 -101 0
-9 -72 -101 0
-31 49 101 0
38 52 101 0
3 58 101 0
-31 45 -102 0
-26 -48 -102 0
35 -40 102 0
-21 -43 102 0
6 51 102 0
-11 55 102 0
23 -63 102 0
-3 -43 -103 0
21 74 103 0
-10 59 -104 0
5 -40 104 0
-21 54 104 0
-21 58 104 0
35 71 104 0
11 -75 104 0
-37 -61 105 0
-29 -65 105 0
-26 50 -106 0
-10 -67 -106 0
39 -69 -106 0
-8 77 -106 0
-36 -42 106 0
-14 53 106 0
29 64 106 0
31 64 106 0
17 40 107 0
29 -43 107 0
-22 43 107 0
12 50 107 0
-14 -48 -108 0
23 73 -108 0
31 47 108 0
-30 59 108 0
34 41 -109 0
12 62 -109 0
-35 -46 109 0
-18 58 109 0
38 67 109 0
8 72 109 0
-3 48 -110 0
2 -63 -110 0
31 -63 -110 0
-28 -72 -110 0
19 41 110 0
-7 -47 110 0
-29 71 110 0
-18 47 -111 0
5 -49 111 0
-33 52 111 0
-4 -66 111 0
24 -47 -112 0
-12 -58 -112 0
-12 -68 -112 0
-17 40 112 0
38 -44 112 0
-7 52 112 0
35 -60 112 0
-15 -67 112 0
-27 67 112 0
-27 78 112 0
2 -79 112 0
16 -53 -113 0
-32 61 -113 0
3 -76 -113 0
-28 41 113 0
-26 -51 113 0
-14 54 113 0
-6 -61 113 0
14 -41 -114 0
-35 56 -114 0
28 -61 -114 0
-12 -70 -114 0
-14 74 -114 0
18 -40 114 0
-35 -54 114 0
36 51 -115 0
24 74 -115 0
-27 -77 -115 0
27 78 -115 0
-5 40 115 0
-35 -66 115 0
-27 74 115 0
31 79 115 0
-36 79 115 0
2 40 -116 0
-11 -70 -116 0
23 -47 116 0
27 -47 116 0
-5 53 116 0
-31 62 116 0
-15 76 116 0
29 -41 117 0
24 50 117 0
-30 -53 117 0
19 -60 117 0
-20 -75 117 0
12 45 -118 0
-33 50 -118 0
-23 40 118 0
-26 66 118 0
37 -59 -119 0
-1 -65 -119 0
-3 -47 119 0
-1 49 119 0
-2 -61 119 0
